g3 1 1 0	# problem unknown
 36 15 1 0 15 	# vars, constraints, objectives, general inequalities, equalities  
 11 0 	# nonlinear constraints, objectives
 0 0	# network constraints: nonlinear, linear
 36 0 0 	# nonlinear vars in constraints, objectives, both
 0 0 0 1	# linear network variables; functions; arith, flags
 0 0 0 0 0 	# discrete variables: binary, integer, nonlinear (b,c,o)
 70 12 	# nonzeros in Jacobian, obj. gradient
 0 0	# max name lengths: constraints, variables
 0 0 0 0 0	# common exprs: b,c,o,c1,o1
C0	#unknown_cons1[1]
o54
3
o5
o0
v3
o2
n-1
v0
n2
o5
o0
v15
o2
n-1
v12
n2
o5
o0
v27
o2
n-1
v24
n2
C1	#unknown_cons1[2]
o54
3
o5
o0
v4
o2
n-1
v3
n2
o5
o0
v16
o2
n-1
v15
n2
o5
o0
v28
o2
n-1
v27
n2
C2	#unknown_cons1[3]
o54
3
o5
o0
v5
o2
n-1
v4
n2
o5
o0
v17
o2
n-1
v16
n2
o5
o0
v29
o2
n-1
v28
n2
C3	#unknown_cons1[4]
o54
3
o5
o0
v6
o2
n-1
v5
n2
o5
o0
v18
o2
n-1
v17
n2
o5
o0
v30
o2
n-1
v29
n2
C4	#unknown_cons1[5]
o54
3
o5
o0
v7
o2
n-1
v6
n2
o5
o0
v19
o2
n-1
v18
n2
o5
o0
v31
o2
n-1
v30
n2
C5	#unknown_cons1[6]
o54
3
o5
o0
v8
o2
n-1
v7
n2
o5
o0
v20
o2
n-1
v19
n2
o5
o0
v32
o2
n-1
v31
n2
C6	#unknown_cons1[7]
o54
3
o5
o0
v9
o2
n-1
v8
n2
o5
o0
v21
o2
n-1
v20
n2
o5
o0
v33
o2
n-1
v32
n2
C7	#unknown_cons1[8]
o54
3
o5
o0
v10
o2
n-1
v9
n2
o5
o0
v22
o2
n-1
v21
n2
o5
o0
v34
o2
n-1
v33
n2
C8	#unknown_cons1[9]
o54
3
o5
o0
v11
o2
n-1
v10
n2
o5
o0
v23
o2
n-1
v22
n2
o5
o0
v35
o2
n-1
v34
n2
C9	#unknown_cons1[10]
o54
3
o5
o0
v1
o2
n-1
v11
n2
o5
o0
v13
o2
n-1
v23
n2
o5
o0
v25
o2
n-1
v35
n2
C10	#unknown_cons1[11]
o54
3
o5
o0
v2
o2
n-1
v1
n2
o5
o0
v14
o2
n-1
v13
n2
o5
o0
v26
o2
n-1
v25
n2
C11
n0
C12
n0
C13
n0
C14
n0
O0 0
n0.0
x36
0 0.0
1 6.0
2 6.6
3 0.6
4 1.2
5 1.8
6 2.4
7 3.0
8 3.6
9 4.2
10 4.8
11 5.4
12 0.0
13 -6.0
14 -6.6
15 -0.6
16 -1.2
17 -1.8
18 -2.4
19 -3.0
20 -3.6
21 -4.2
22 -4.8
23 -5.4
24 0.0
25 0.0
26 0.0
27 0.0
28 0.0
29 0.0
30 0.0
31 0.0
32 0.0
33 0.0
34 0.0
35 0.0
r
4 1.0 
4 1.0 
4 1.0 
4 1.0 
4 1.0 
4 1.0 
4 1.0 
4 1.0 
4 1.0 
4 1.0 
4 1.0 
4 0.0 
4 0.0 
4 0.0 
4 6.6 
b
3
3
3
3
3
3
3
3
3
3
3
3
3
3
3
3
3
3
3
3
3
3
3
3
3
3
3
3
3
3
3
3
3
3
3
3
k35
2
4
6
8
10
12
14
16
18
20
22
24
26
28
29
31
33
35
37
39
41
43
45
47
49
51
52
54
56
58
60
62
64
66
68
J0 6
0 0
3 0
12 0
15 0
24 0
27 0
J1 6
3 0
4 0
15 0
16 0
27 0
28 0
J2 6
4 0
5 0
16 0
17 0
28 0
29 0
J3 6
5 0
6 0
17 0
18 0
29 0
30 0
J4 6
6 0
7 0
18 0
19 0
30 0
31 0
J5 6
7 0
8 0
19 0
20 0
31 0
32 0
J6 6
8 0
9 0
20 0
21 0
32 0
33 0
J7 6
9 0
10 0
21 0
22 0
33 0
34 0
J8 6
10 0
11 0
22 0
23 0
34 0
35 0
J9 6
1 0
11 0
13 0
23 0
25 0
35 0
J10 6
1 0
2 0
13 0
14 0
25 0
26 0
J11 1
0 1.0
J12 1
12 1.0
J13 1
24 1.0
J14 1
2 1.0
G0 12
12 222.954545455
13 445.909090909
14 222.954545455
15 445.909090909
16 445.909090909
17 445.909090909
18 445.909090909
19 445.909090909
20 445.909090909
21 445.909090909
22 445.909090909
23 445.909090909
